54
1 2 3 4 5 6 7 9 10 14 17 18 35 43 62 108 113 142 171 176 205 279 336 351 362 363 372 418 463 514 522 532 533 716 719 788 862 894 922 986 994 1112 1116 1137 1171 1256 1316 1386 1556 1592 1601 1748 1796 1841
